1813704
15,96,34,4,63,52,48,20,19,59,21,58,89,53,71,74,68,0,65,72,24,28,25,16,93,50,77,94,46,56,32,8,95,76,29,69,3,91,83,64,51,97,70,33,45,27,85,47,31,30,12,92,54,43,5,40,17,55,9,61,67,98,82,14,57,81,60,87,35,66,10,22,13,80,36,73,6,78,39,11,18,23,42,38,44,90,7,84,88,2,1,26,96,62,79,37,75,86,49
